Iteration #1
Total number of hole bits is 152
Sketch file is spam_detection_equivalent_3_canonicalizer_equivalent_1_pair_stateless_alu_1_1_codegen_iteration_1.sk
Synthesis succeeded with 2 bits, proceeding to verification.
spam_detection_equivalent_3_canonicalizer_equivalent_1_pair_stateless_alu_1_1_verify_iter_1.sk passed syntax check. 
Verification failed.
Use returned counterexamples {'pkt_0': 0} {'state_group_0_state_0': 2, 'state_group_0_state_1': 999}
Iteration #2
Total number of hole bits is 152
Sketch file is spam_detection_equivalent_3_canonicalizer_equivalent_1_pair_stateless_alu_1_1_codegen_iteration_2.sk
Synthesis succeeded with 2 bits, proceeding to verification.
spam_detection_equivalent_3_canonicalizer_equivalent_1_pair_stateless_alu_1_1_verify_iter_2.sk passed syntax check. 
Verification failed.
Use returned counterexamples {'pkt_0': 1} {'state_group_0_state_0': 2, 'state_group_0_state_1': 1000}
Iteration #3
Total number of hole bits is 152
Sketch file is spam_detection_equivalent_3_canonicalizer_equivalent_1_pair_stateless_alu_1_1_codegen_iteration_3.sk
Synthesis succeeded with 2 bits, proceeding to verification.
spam_detection_equivalent_3_canonicalizer_equivalent_1_pair_stateless_alu_1_1_verify_iter_3.sk passed syntax check. 
Verification failed.
Use returned counterexamples {'pkt_0': 1} {'state_group_0_state_0': 2, 'state_group_0_state_1': 999}
Iteration #4
Total number of hole bits is 152
Sketch file is spam_detection_equivalent_3_canonicalizer_equivalent_1_pair_stateless_alu_1_1_codegen_iteration_4.sk
Synthesis succeeded with 2 bits, proceeding to verification.
spam_detection_equivalent_3_canonicalizer_equivalent_1_pair_stateless_alu_1_1_verify_iter_4.sk passed syntax check. 
Failed to generate counterexamples, z3 returned unsat
Compilation succeeded. Hole value assignments are following:
int spam_detection_equivalent_3_canonicalizer_equivalent_1_pair_stateless_alu_1_1_stateful_alu_0_0_const_5_global = 0
int spam_detection_equivalent_3_canonicalizer_equivalent_1_pair_stateless_alu_1_1_stateful_alu_0_0_const_6_global = 1
int spam_detection_equivalent_3_canonicalizer_equivalent_1_pair_stateless_alu_1_1_stateful_alu_0_0_const_8_global = 0
int spam_detection_equivalent_3_canonicalizer_equivalent_1_pair_stateless_alu_1_1_stateful_alu_0_0_const_11_global = 4
int spam_detection_equivalent_3_canonicalizer_equivalent_1_pair_stateless_alu_1_1_stateful_alu_0_0_Mux3_1_global = 3
int spam_detection_equivalent_3_canonicalizer_equivalent_1_pair_stateless_alu_1_1_stateful_operand_mux_0_0_0_ctrl = 0
int spam_detection_equivalent_3_canonicalizer_equivalent_1_pair_stateless_alu_1_1_stateful_alu_0_0_rel_op_0_global = 1
int spam_detection_equivalent_3_canonicalizer_equivalent_1_pair_stateless_alu_1_1_stateful_operand_mux_0_0_3_ctrl = 0
int spam_detection_equivalent_3_canonicalizer_equivalent_1_pair_stateless_alu_1_1_stateful_alu_0_0_const_10_global = 2
int spam_detection_equivalent_3_canonicalizer_equivalent_1_pair_stateless_alu_1_1_stateful_alu_0_0_const_13_global = 0
int spam_detection_equivalent_3_canonicalizer_equivalent_1_pair_stateless_alu_1_1_stateful_alu_0_0_Opt_2_global = 0
int spam_detection_equivalent_3_canonicalizer_equivalent_1_pair_stateless_alu_1_1_stateful_alu_0_0_const_17_global = 0
int spam_detection_equivalent_3_canonicalizer_equivalent_1_pair_stateless_alu_1_1_stateful_alu_0_0_Mux3_24_global = 2
int spam_detection_equivalent_3_canonicalizer_equivalent_1_pair_stateless_alu_1_1_stateful_alu_0_0_arith_op_1_global = 0
int spam_detection_equivalent_3_canonicalizer_equivalent_1_pair_stateless_alu_1_1_stateful_alu_0_0_arith_op_7_global = 0
int spam_detection_equivalent_3_canonicalizer_equivalent_1_pair_stateless_alu_1_1_stateful_alu_0_0_Mux3_20_global = 1
int spam_detection_equivalent_3_canonicalizer_equivalent_1_pair_stateless_alu_1_1_stateful_alu_0_0_Mux3_9_global = 2
int spam_detection_equivalent_3_canonicalizer_equivalent_1_pair_stateless_alu_1_1_stateful_alu_0_0_Mux3_0_global = 0
int spam_detection_equivalent_3_canonicalizer_equivalent_1_pair_stateless_alu_1_1_stateless_alu_0_0_mux2_ctrl = 0
int spam_detection_equivalent_3_canonicalizer_equivalent_1_pair_stateless_alu_1_1_stateful_alu_0_0_rel_op_3_global = 0
int spam_detection_equivalent_3_canonicalizer_equivalent_1_pair_stateless_alu_1_1_stateful_alu_0_0_Mux3_8_global = 2
int spam_detection_equivalent_3_canonicalizer_equivalent_1_pair_stateless_alu_1_1_stateful_alu_0_0_const_2_global = 3
int spam_detection_equivalent_3_canonicalizer_equivalent_1_pair_stateless_alu_1_1_stateful_alu_0_0_const_0_global = 2
int spam_detection_equivalent_3_canonicalizer_equivalent_1_pair_stateless_alu_1_1_stateful_alu_0_0_rel_op_1_global = 0
int spam_detection_equivalent_3_canonicalizer_equivalent_1_pair_stateless_alu_1_1_stateful_alu_0_0_Opt_4_global = 0
int spam_detection_equivalent_3_canonicalizer_equivalent_1_pair_stateless_alu_1_1_stateful_alu_0_0_Mux3_4_global = 0
int spam_detection_equivalent_3_canonicalizer_equivalent_1_pair_stateless_alu_1_1_stateful_alu_0_0_Mux3_3_global = 0
int spam_detection_equivalent_3_canonicalizer_equivalent_1_pair_stateless_alu_1_1_stateful_alu_0_0_Mux3_15_global = 0
int spam_detection_equivalent_3_canonicalizer_equivalent_1_pair_stateless_alu_1_1_stateful_alu_0_0_Mux3_18_global = 3
int spam_detection_equivalent_3_canonicalizer_equivalent_1_pair_stateless_alu_1_1_stateful_alu_0_0_arith_op_0_global = 1
int spam_detection_equivalent_3_canonicalizer_equivalent_1_pair_stateless_alu_1_1_stateful_alu_0_0_Mux3_21_global = 0
int spam_detection_equivalent_3_canonicalizer_equivalent_1_pair_stateless_alu_1_1_stateless_alu_0_0_mux1_ctrl = 0
int spam_detection_equivalent_3_canonicalizer_equivalent_1_pair_stateless_alu_1_1_stateful_alu_0_0_const_7_global = 0
int spam_detection_equivalent_3_canonicalizer_equivalent_1_pair_stateless_alu_1_1_stateful_alu_0_0_const_14_global = 1
int spam_detection_equivalent_3_canonicalizer_equivalent_1_pair_stateless_alu_1_1_stateful_alu_0_0_Mux3_5_global = 1
int spam_detection_equivalent_3_canonicalizer_equivalent_1_pair_stateless_alu_1_1_stateful_operand_mux_0_0_4_ctrl = 0
int spam_detection_equivalent_3_canonicalizer_equivalent_1_pair_stateless_alu_1_1_stateful_alu_0_0_Opt_0_global = 1
int spam_detection_equivalent_3_canonicalizer_equivalent_1_pair_stateless_alu_1_1_stateful_alu_0_0_Mux3_14_global = 0
int spam_detection_equivalent_3_canonicalizer_equivalent_1_pair_stateless_alu_1_1_stateful_alu_0_0_const_15_global = 0
int spam_detection_equivalent_3_canonicalizer_equivalent_1_pair_stateless_alu_1_1_stateful_alu_0_0_const_18_global = 1
int spam_detection_equivalent_3_canonicalizer_equivalent_1_pair_stateless_alu_1_1_stateful_alu_0_0_Mux3_7_global = 2
int spam_detection_equivalent_3_canonicalizer_equivalent_1_pair_stateless_alu_1_1_stateful_operand_mux_0_0_2_ctrl = 0
int spam_detection_equivalent_3_canonicalizer_equivalent_1_pair_stateless_alu_1_1_stateful_alu_0_0_const_16_global = 1
int spam_detection_equivalent_3_canonicalizer_equivalent_1_pair_stateless_alu_1_1_stateless_alu_0_0_immediate = 0
int spam_detection_equivalent_3_canonicalizer_equivalent_1_pair_stateless_alu_1_1_stateful_alu_0_0_Mux3_25_global = 3
int spam_detection_equivalent_3_canonicalizer_equivalent_1_pair_stateless_alu_1_1_stateful_alu_0_0_arith_op_6_global = 1
int spam_detection_equivalent_3_canonicalizer_equivalent_1_pair_stateless_alu_1_1_stateful_alu_0_0_const_1_global = 0
int spam_detection_equivalent_3_canonicalizer_equivalent_1_pair_stateless_alu_1_1_stateful_alu_0_0_const_19_global = 0
int spam_detection_equivalent_3_canonicalizer_equivalent_1_pair_stateless_alu_1_1_salu_config_0_0 = 1
int spam_detection_equivalent_3_canonicalizer_equivalent_1_pair_stateless_alu_1_1_stateful_alu_0_0_Mux3_6_global = 2
int spam_detection_equivalent_3_canonicalizer_equivalent_1_pair_stateless_alu_1_1_stateful_alu_0_0_Mux3_22_global = 2
int spam_detection_equivalent_3_canonicalizer_equivalent_1_pair_stateless_alu_1_1_stateful_alu_0_0_Opt_6_global = 0
int spam_detection_equivalent_3_canonicalizer_equivalent_1_pair_stateless_alu_1_1_stateful_alu_0_0_arith_op_2_global = 1
int spam_detection_equivalent_3_canonicalizer_equivalent_1_pair_stateless_alu_1_1_stateless_alu_0_0_opcode = 14
int spam_detection_equivalent_3_canonicalizer_equivalent_1_pair_stateless_alu_1_1_stateful_alu_0_0_const_12_global = 2
int spam_detection_equivalent_3_canonicalizer_equivalent_1_pair_stateless_alu_1_1_stateful_alu_0_0_arith_op_3_global = 0
int spam_detection_equivalent_3_canonicalizer_equivalent_1_pair_stateless_alu_1_1_stateful_alu_0_0_Mux3_27_global = 2
int spam_detection_equivalent_3_canonicalizer_equivalent_1_pair_stateless_alu_1_1_stateful_alu_0_0_const_4_global = 1
int spam_detection_equivalent_3_canonicalizer_equivalent_1_pair_stateless_alu_1_1_stateful_alu_0_0_output_mux_global = 1
int spam_detection_equivalent_3_canonicalizer_equivalent_1_pair_stateless_alu_1_1_stateful_alu_0_0_Opt_1_global = 1
int spam_detection_equivalent_3_canonicalizer_equivalent_1_pair_stateless_alu_1_1_stateful_alu_0_0_Mux3_17_global = 1
int spam_detection_equivalent_3_canonicalizer_equivalent_1_pair_stateless_alu_1_1_stateful_alu_0_0_const_9_global = 0
int spam_detection_equivalent_3_canonicalizer_equivalent_1_pair_stateless_alu_1_1_stateful_alu_0_0_arith_op_4_global = 1
int spam_detection_equivalent_3_canonicalizer_equivalent_1_pair_stateless_alu_1_1_stateful_alu_0_0_const_3_global = 1
int spam_detection_equivalent_3_canonicalizer_equivalent_1_pair_stateless_alu_1_1_stateful_alu_0_0_Opt_7_global = 0
int spam_detection_equivalent_3_canonicalizer_equivalent_1_pair_stateless_alu_1_1_stateless_alu_0_0_mux3_ctrl = 0
int spam_detection_equivalent_3_canonicalizer_equivalent_1_pair_stateless_alu_1_1_stateful_operand_mux_0_0_1_ctrl = 0
int spam_detection_equivalent_3_canonicalizer_equivalent_1_pair_stateless_alu_1_1_stateful_alu_0_0_Mux3_10_global = 0
int spam_detection_equivalent_3_canonicalizer_equivalent_1_pair_stateless_alu_1_1_stateful_alu_0_0_Mux3_12_global = 2
int spam_detection_equivalent_3_canonicalizer_equivalent_1_pair_stateless_alu_1_1_stateful_alu_0_0_Mux3_16_global = 0
int spam_detection_equivalent_3_canonicalizer_equivalent_1_pair_stateless_alu_1_1_output_mux_phv_0_0_ctrl = 2
int spam_detection_equivalent_3_canonicalizer_equivalent_1_pair_stateless_alu_1_1_stateful_alu_0_0_arith_op_5_global = 0
int spam_detection_equivalent_3_canonicalizer_equivalent_1_pair_stateless_alu_1_1_stateful_alu_0_0_Mux3_13_global = 2
int spam_detection_equivalent_3_canonicalizer_equivalent_1_pair_stateless_alu_1_1_stateful_alu_0_0_Mux3_2_global = 3
int spam_detection_equivalent_3_canonicalizer_equivalent_1_pair_stateless_alu_1_1_stateful_alu_0_0_Mux3_23_global = 3
int spam_detection_equivalent_3_canonicalizer_equivalent_1_pair_stateless_alu_1_1_stateful_alu_0_0_Mux3_11_global = 1
int spam_detection_equivalent_3_canonicalizer_equivalent_1_pair_stateless_alu_1_1_stateful_alu_0_0_Mux3_26_global = 2
int spam_detection_equivalent_3_canonicalizer_equivalent_1_pair_stateless_alu_1_1_stateful_alu_0_0_Mux3_19_global = 3
int spam_detection_equivalent_3_canonicalizer_equivalent_1_pair_stateless_alu_1_1_stateful_alu_0_0_Opt_5_global = 0
int spam_detection_equivalent_3_canonicalizer_equivalent_1_pair_stateless_alu_1_1_stateful_alu_0_0_rel_op_2_global = 3
int spam_detection_equivalent_3_canonicalizer_equivalent_1_pair_stateless_alu_1_1_stateful_alu_0_0_Opt_3_global = 0
Output left in spam_detection_equivalent_3_canonicalizer_equivalent_1_pair_stateless_alu_1_1.success